words_easy_train/words_665_SAT.qaiger
aag 31 16 0 1 15
16
18
6
22
28
30
32
12
20
2
26
24
4
10
8
14
63
34 19 3
36 35 17
38 21 15
40 38 27
42 23 7
44 43 40
46 44 36
48 25 9
50 29 13
52 51 11
54 33 31
56 54 5
58 56 52
60 58 49
62 60 46
i0 1 x2[7]
i1 2 y2[0]
i2 1 x2[2]
i3 2 y2[2]
i4 2 y2[5]
i5 2 y2[6]
i6 2 y2[7]
i7 1 x2[5]
i8 2 y2[1]
i9 1 x2[0]
i10 2 y2[4]
i11 2 y2[3]
i12 1 x2[1]
i13 1 x2[4]
i14 1 x2[3]
i15 1 x2[6]
o0 bool[0]
c
simplified
  !=
    reverse
      180
    or
      1 x2
      2 y2
